Route #1: 58 53 6 44 45 20 26
Route #2: 3 9 36 22 35 15 5 59 19 24
Route #3: 46 16 28 60 48 55 51 4 14
Route #4: 37 10 61 50 32
Route #5: 54 8 21 31 34 38
Route #6: 33 47 12 13 56 29
Route #7: 41 62 43 49
Route #8: 23 25 57 42 39 2 63
Route #9: 27 40 11 18 30 7 17 52 1
cost 1075.5570068359375